1394.25,40.62,48.68
1453.45,38.96,46.69
1334.35,42.44,50.86
1328.55,42.62,51.08
1432.54,39.53,47.38
1389.71,40.75,48.84
1465.36,38.64,46.31
1496.5,37.84,45.35
1455.54,38.91,46.63
1259.44,44.96,53.89
1367.48,41.41,49.63
1316.0,43.03,51.57
1286.32,44.02,52.76
1479.0,38.29,45.89
1498.93,37.78,45.28
1444.93,39.19,46.97
1422.36,39.81,47.71
1479.93,38.26,45.86
1537.15,36.84,44.15
1409.98,40.16,48.13
